c Reduced graph for GEOM60b_0 generated by Cyril Grelier
p edge 55 346
e 1 4
e 1 5
e 1 6
e 1 7
e 1 8
e 1 9
e 1 10
e 1 11
e 1 14
e 1 15
e 1 21
e 1 23
e 1 25
e 1 28
e 1 29
e 1 43
e 1 47
e 2 12
e 2 21
e 2 22
e 2 24
e 2 27
e 2 30
e 2 31
e 2 33
e 2 34
e 2 35
e 2 40
e 2 43
e 2 45
e 2 49
e 2 50
e 2 51
e 2 55
e 3 4
e 3 5
e 3 9
e 3 14
e 3 17
e 3 23
e 3 26
e 3 28
e 3 32
e 3 37
e 3 38
e 3 39
e 3 44
e 3 46
e 3 48
e 3 52
e 3 54
e 4 5
e 4 6
e 4 7
e 4 8
e 4 10
e 4 11
e 4 21
e 4 22
e 4 23
e 4 25
e 4 26
e 4 27
e 4 28
e 4 29
e 4 43
e 5 21
e 5 22
e 5 23
e 5 24
e 5 25
e 5 26
e 5 28
e 5 31
e 5 32
e 5 34
e 5 43
e 5 44
e 5 46
e 6 7
e 6 8
e 6 10
e 6 11
e 6 13
e 6 15
e 6 18
e 6 21
e 6 23
e 6 25
e 6 28
e 6 29
e 6 36
e 6 53
e 7 8
e 7 10
e 7 13
e 7 15
e 7 16
e 7 18
e 7 20
e 7 25
e 7 29
e 7 36
e 7 53
e 8 10
e 8 13
e 8 16
e 8 18
e 8 21
e 8 25
e 8 29
e 8 36
e 8 49
e 8 53
e 9 11
e 9 14
e 9 23
e 9 25
e 9 28
e 9 37
e 9 38
e 9 39
e 9 41
e 9 42
e 9 44
e 9 47
e 10 13
e 10 16
e 10 18
e 10 21
e 10 25
e 10 29
e 10 36
e 10 49
e 10 53
e 11 14
e 11 15
e 11 23
e 11 25
e 11 28
e 11 37
e 11 38
e 11 41
e 11 47
e 12 22
e 12 24
e 12 27
e 12 30
e 12 33
e 12 35
e 12 40
e 12 49
e 12 50
e 12 51
e 12 55
e 13 15
e 13 16
e 13 18
e 13 20
e 13 29
e 13 36
e 13 53
e 14 23
e 14 37
e 14 38
e 14 39
e 14 41
e 14 42
e 14 47
e 15 18
e 15 25
e 15 29
e 15 41
e 15 47
e 16 29
e 16 30
e 16 36
e 16 49
e 16 50
e 16 53
e 17 26
e 17 32
e 17 39
e 17 44
e 17 46
e 17 48
e 17 52
e 17 54
e 18 20
e 18 29
e 18 53
e 19 26
e 19 31
e 19 32
e 19 34
e 19 44
e 19 45
e 19 46
e 19 54
e 20 29
e 20 36
e 20 53
e 21 22
e 21 23
e 21 24
e 21 25
e 21 27
e 21 28
e 21 30
e 21 31
e 21 34
e 21 43
e 21 45
e 21 49
e 21 50
e 22 24
e 22 27
e 22 28
e 22 30
e 22 31
e 22 33
e 22 34
e 22 35
e 22 43
e 22 45
e 22 49
e 22 50
e 23 25
e 23 26
e 23 28
e 23 29
e 23 43
e 23 44
e 23 46
e 23 47
e 24 27
e 24 30
e 24 31
e 24 33
e 24 34
e 24 35
e 24 40
e 24 43
e 24 45
e 24 51
e 24 55
e 25 28
e 25 29
e 25 43
e 25 47
e 26 28
e 26 31
e 26 32
e 26 34
e 26 43
e 26 44
e 26 46
e 26 48
e 26 52
e 26 54
e 27 30
e 27 31
e 27 33
e 27 35
e 27 43
e 27 45
e 27 49
e 27 50
e 27 51
e 28 43
e 28 44
e 28 46
e 29 36
e 29 53
e 30 35
e 30 40
e 30 43
e 30 49
e 30 50
e 30 51
e 31 32
e 31 33
e 31 34
e 31 43
e 31 45
e 32 34
e 32 44
e 32 46
e 32 48
e 32 52
e 32 54
e 33 34
e 33 35
e 33 40
e 33 45
e 33 51
e 33 55
e 34 43
e 34 45
e 35 40
e 35 45
e 35 50
e 35 51
e 35 55
e 36 49
e 36 50
e 36 53
e 37 38
e 37 39
e 37 41
e 37 42
e 37 44
e 37 47
e 37 48
e 38 39
e 38 42
e 38 44
e 38 47
e 38 48
e 38 52
e 39 42
e 39 44
e 39 48
e 39 52
e 40 45
e 40 51
e 40 55
e 41 42
e 41 47
e 42 47
e 43 45
e 44 46
e 44 48
e 44 52
e 44 54
e 45 51
e 45 55
e 46 48
e 46 52
e 46 54
e 48 52
e 48 54
e 49 50
e 50 51
e 51 55
e 52 54
